p cnf 14 20
1 7 6 0
12 -14 6 0
3 -1 -4 0
12 -14 -2 0
-1 -10 -13 0
-6 10 13 0
14 -11 -13 0
8 -13 11 0
-11 -7 2 0
-4 -1 -7 0
-9 5 -12 0
7 1 -8 0
-1 14 -12 0
3 9 -13 0
11 6 14 0
-4 -5 2 0
11 13 14 0
9 -6 -2 0
4 3 6 0
-12 -11 -8 0
